500
75 75
1 60 364
2 60 326
3 60 765
4 60 715
5 60 452
6 60 138
7 60 773
8 60 249
9 60 82
10 59 496
11 59 816
12 59 684
13 59 114
14 59 60
15 59 689
16 59 452
17 59 295
18 59 874
19 59 205
20 59 366
21 59 555
22 59 649
23 58 926
24 58 48
25 58 13
26 58 709
27 58 53
28 58 849
29 58 258
30 58 692
31 58 928
32 58 968
33 58 748
34 58 634
35 58 495
36 58 294
37 58 264
38 58 95
39 57 74
40 57 364
41 57 221
42 57 14
43 57 682
44 57 853
45 57 591
46 57 983
47 57 267
48 57 871
49 56 178
50 56 454
51 56 569
52 56 650
53 56 909
54 56 202
55 56 249
56 56 379
57 55 831
58 55 465
59 55 816
60 55 428
61 55 284
62 55 141
63 55 99
64 55 645
65 55 465
66 55 123
67 55 209
68 55 709
69 55 998
70 55 821
71 55 463
72 55 618
73 54 451
74 54 280
75 54 351
76 54 981
77 54 178
78 54 547
79 54 722
80 54 908
81 54 18
82 54 692
83 54 670
84 54 13
85 54 291
86 54 404
87 53 720
88 53 731
89 53 537
90 53 562
91 53 734
92 53 944
93 52 7
94 52 625
95 52 386
96 52 299
97 52 949
98 51 217
99 51 955
100 51 118
101 51 59
102 51 263
103 51 969
104 51 875
105 51 177
106 51 837
107 51 701
108 51 218
109 51 121
110 50 892
111 50 780
112 50 325
113 50 145
114 50 151
115 50 625
116 50 973
117 50 224
118 50 707
119 50 946
120 50 106
121 49 7
122 49 265
123 49 885
124 49 166
125 49 735
126 49 552
127 49 483
128 49 923
129 49 542
130 49 339
131 48 615
132 48 183
133 48 479
134 48 775
135 48 182
136 48 202
137 48 505
138 47 81
139 47 787
140 47 966
141 47 979
142 47 762
143 47 940
144 47 889
145 47 621
146 47 104
147 47 986
148 47 933
149 47 881
150 47 320
151 47 895
152 47 721
153 46 484
154 46 108
155 46 212
156 46 694
157 46 783
158 46 785
159 46 397
160 46 302
161 46 514
162 46 500
163 45 317
164 45 354
165 45 677
166 45 441
167 45 524
168 45 53
169 45 716
170 45 170
171 45 762
172 44 994
173 44 867
174 44 675
175 44 670
176 44 610
177 44 269
178 44 927
179 44 502
180 44 670
181 44 107
182 44 48
183 44 920
184 43 700
185 43 35
186 43 296
187 43 783
188 43 691
189 43 97
190 43 170
191 43 980
192 43 891
193 43 4
194 43 158
195 43 548
196 43 134
197 43 993
198 42 793
199 42 155
200 42 137
201 42 840
202 42 450
203 42 671
204 42 573
205 42 316
206 42 855
207 42 735
208 42 103
209 42 850
210 42 969
211 42 743
212 42 500
213 41 637
214 41 38
215 41 949
216 41 387
217 41 861
218 41 177
219 41 844
220 41 687
221 41 470
222 41 411
223 41 930
224 41 274
225 41 784
226 41 450
227 40 296
228 40 153
229 40 454
230 40 229
231 40 739
232 40 427
233 40 849
234 40 558
235 40 411
236 40 387
237 40 64
238 40 485
239 40 196
240 39 682
241 39 929
242 39 537
243 39 118
244 39 237
245 39 888
246 39 733
247 39 300
248 38 885
249 38 74
250 38 773
251 38 108
252 38 412
253 38 377
254 38 693
255 38 318
256 37 15
257 37 19
258 37 92
259 37 664
260 37 433
261 37 180
262 37 307
263 37 94
264 37 157
265 37 779
266 37 606
267 37 126
268 36 415
269 36 697
270 36 199
271 36 930
272 36 727
273 36 430
274 36 760
275 36 556
276 36 905
277 35 970
278 35 757
279 35 730
280 35 883
281 35 676
282 35 765
283 35 26
284 35 784
285 35 205
286 35 50
287 35 904
288 35 350
289 34 803
290 34 958
291 34 903
292 34 185
293 34 725
294 34 843
295 34 487
296 34 440
297 34 129
298 34 788
299 34 657
300 34 388
301 34 679
302 34 29
303 33 128
304 33 164
305 33 154
306 33 167
307 33 751
308 33 360
309 32 273
310 32 279
311 32 999
312 32 855
313 32 253
314 32 445
315 32 85
316 32 50
317 32 277
318 32 699
319 32 83
320 32 725
321 32 44
322 32 426
323 32 952
324 32 564
325 31 98
326 31 63
327 31 130
328 31 376
329 31 485
330 31 418
331 31 111
332 31 158
333 31 92
334 31 217
335 31 169
336 31 187
337 31 939
338 31 532
339 31 333
340 30 50
341 30 241
342 30 634
343 30 104
344 30 336
345 30 620
346 30 413
347 30 313
348 30 415
349 30 825
350 30 987
351 30 867
352 30 922
353 30 960
354 30 705
355 30 299
356 29 223
357 29 943
358 29 185
359 29 840
360 29 145
361 28 620
362 28 995
363 28 997
364 28 393
365 28 529
366 28 616
367 28 671
368 28 329
369 28 168
370 27 919
371 27 358
372 27 713
373 27 763
374 27 296
375 27 730
376 27 740
377 26 178
378 26 714
379 26 659
380 26 660
381 26 610
382 26 676
383 26 809
384 26 161
385 25 10
386 25 389
387 25 582
388 25 172
389 25 595
390 25 321
391 25 722
392 25 577
393 25 633
394 24 726
395 24 243
396 24 636
397 24 454
398 24 966
399 24 288
400 24 322
401 24 826
402 23 947
403 23 308
404 23 738
405 23 502
406 23 705
407 23 683
408 23 806
409 23 232
410 23 627
411 23 645
412 23 261
413 23 240
414 23 536
415 22 378
416 22 478
417 22 243
418 22 265
419 22 923
420 22 255
421 22 941
422 22 654
423 22 61
424 22 145
425 22 558
426 22 224
427 21 803
428 21 63
429 21 856
430 21 174
431 21 81
432 21 100
433 21 689
434 21 452
435 21 678
436 20 219
437 20 39
438 20 893
439 20 282
440 20 276
441 20 857
442 20 91
443 20 222
444 20 350
445 20 20
446 20 69
447 20 644
448 20 711
449 20 168
450 20 367
451 19 953
452 19 304
453 19 694
454 19 219
455 19 183
456 19 627
457 19 265
458 19 224
459 19 488
460 19 481
461 19 787
462 19 709
463 18 57
464 18 865
465 18 714
466 18 274
467 18 516
468 18 677
469 18 304
470 17 599
471 17 851
472 17 680
473 17 737
474 17 935
475 17 433
476 17 656
477 17 43
478 17 407
479 16 992
480 16 996
481 16 472
482 16 646
483 16 218
484 16 365
485 16 543
486 16 176
487 16 263
488 16 643
489 15 966
490 15 441
491 15 656
492 15 46
493 15 247
494 15 919
495 15 724
496 15 65
497 15 867
498 15 211
499 15 686
500 15 212
